
Gurobi 12.0.0 (mac64[arm]) logging started Thu Sep 11 20:05:48 2025

Set parameter LogFile to value "gurobi_output_cah_sim.txt"
Gurobi Optimizer version 12.0.0 build v12.0.0rc1 (mac64[arm] - Darwin 24.6.0 24G90)

CPU model: Apple M4 Pro
Thread count: 12 physical cores, 12 logical processors, using up to 12 threads

Non-default parameters:
WorkLimit  100000

Optimize a model with 90600 rows, 727750 columns and 4778850 nonzeros
Model fingerprint: 0x23e6bf09
Model has 625000 simple general constraints
  625000 INDICATOR
Variable types: 0 continuous, 727750 integer (727500 binary)
Coefficient statistics:
  Matrix range     [1e+00, 8e+02]
  Objective range  [1e+00, 1e+02]
  Bounds range     [1e+00, 1e+00]
  RHS range        [1e+00, 2e+03]
  GenCon rhs range [3e+01, 5e+02]
  GenCon coe range [1e+00, 1e+00]
Presolve added 499300 rows and 0 columns
Presolve removed 0 rows and 133800 columns
Presolve time: 0.77s
Presolved: 589900 rows, 593950 columns, 1012650 nonzeros
Variable types: 0 continuous, 593950 integer (66100 binary)
Performing another presolve...
Presolve removed 534150 rows and 533920 columns
Presolve time: 0.04s
Performing another presolve...
Presolve removed 31780 rows and 29550 columns
Presolve time: 0.27s
Deterministic concurrent LP optimizer: primal and dual simplex
Showing primal log only...

Concurrent spin time: 0.12s

Solved with dual simplex

Root relaxation: objective 4.907028e+03, 19264 iterations, 1.40 seconds (3.13 work units)

    Nodes    |    Current Node    |     Objective Bounds      |     Work
 Expl Unexpl |  Obj  Depth IntInf | Incumbent    BestBd   Gap | It/Node Time

     0     0 4907.02836    0  928          - 4907.02836      -     -    3s
H    0     0                    19669.000000 4907.68388  75.0%     -    4s
     0     0 4939.38511    0 1215 19669.0000 4939.38511  74.9%     -    5s
H    0     0                    19109.000000 4939.80415  74.1%     -    5s
H    0     0                    19038.000000 4939.80415  74.1%     -    5s
H    0     0                    18416.000000 4939.80415  73.2%     -    5s
H    0     0                    18258.000000 4939.80415  72.9%     -    5s
H    0     0                    15293.000000 4939.80415  67.7%     -    5s
H    0     0                    14872.000000 4939.80415  66.8%     -    5s
H    0     0                    14818.000000 4939.80415  66.7%     -    5s
H    0     0                    14757.000000 4939.80415  66.5%     -    5s
H    0     0                    14755.000000 4939.80415  66.5%     -    5s
H    0     0                    14749.000000 4939.80415  66.5%     -    5s
H    0     0                    14716.000000 4939.80415  66.4%     -    5s
H    0     0                    14633.000000 4939.80415  66.2%     -    5s
H    0     0                    14562.000000 4939.80415  66.1%     -    5s
     0     0 4942.78990    0 1300 14562.0000 4942.78990  66.1%     -    5s
     0     0 4943.27091    0 1276 14562.0000 4943.27091  66.1%     -    5s
     0     0 4943.27106    0 1290 14562.0000 4943.27106  66.1%     -    5s
     0     0 4955.96699    0 1381 14562.0000 4955.96699  66.0%     -    7s
H    0     0                    14482.000000 4955.97574  65.8%     -    7s
H    0     0                    14438.000000 4955.97574  65.7%     -    7s
H    0     0                    14293.000000 4955.97574  65.3%     -    7s
H    0     0                    14122.000000 4955.97574  64.9%     -    7s
H    0     0                    13980.000000 4955.97574  64.5%     -    7s
H    0     0                    13870.000000 4955.97574  64.3%     -    7s
H    0     0                    13867.000000 4955.97574  64.3%     -    7s
H    0     0                    13732.000000 4955.97574  63.9%     -    7s
H    0     0                    13683.000000 4955.97574  63.8%     -    7s
H    0     0                    13672.000000 4955.97574  63.8%     -    7s
H    0     0                    13669.000000 4955.97574  63.7%     -    8s
H    0     0                    13628.000000 4955.97574  63.6%     -    8s
H    0     0                    13624.000000 4955.97574  63.6%     -    8s
H    0     0                    13546.000000 4955.97574  63.4%     -    8s
H    0     0                    13542.000000 4955.97574  63.4%     -    8s
H    0     0                    13503.000000 4955.97574  63.3%     -    8s
H    0     0                    13498.000000 4955.97574  63.3%     -    8s
H    0     0                    13426.000000 4955.97574  63.1%     -    8s
H    0     0                    13353.000000 4955.97574  62.9%     -    8s
H    0     0                    13211.000000 4955.97574  62.5%     -    8s
H    0     0                    13063.000000 4955.97574  62.1%     -    8s
H    0     0                    13031.000000 4955.97574  62.0%     -    8s
H    0     0                    13003.000000 4955.97574  61.9%     -    8s
H    0     0                    12972.000000 4955.97574  61.8%     -    8s
H    0     0                    12886.000000 4955.97574  61.5%     -    8s
H    0     0                    12864.000000 4955.97574  61.5%     -    8s
H    0     0                    12841.000000 4955.97574  61.4%     -    8s
H    0     0                    12744.000000 4955.97574  61.1%     -    8s
     0     0 4957.67837    0 1402 12744.0000 4957.67837  61.1%     -    8s
     0     0 4957.72711    0 1395 12744.0000 4957.72711  61.1%     -    8s
     0     0 4957.73401    0 1408 12744.0000 4957.73401  61.1%     -    8s
     0     0 4982.68234    0 1436 12744.0000 4982.68234  60.9%     -   10s
H    0     0                    12432.000000 4982.68234  59.9%     -   10s
H    0     0                    12426.000000 4982.68234  59.9%     -   10s
H    0     0                    12408.000000 4982.68234  59.8%     -   10s
     0     0 4984.69356    0 1476 12408.0000 4984.69356  59.8%     -   11s
     0     0 4984.77230    0 1485 12408.0000 4984.77230  59.8%     -   11s
     0     0 4984.80379    0 1497 12408.0000 4984.80379  59.8%     -   11s
     0     0 4984.80379    0 1497 12408.0000 4984.80379  59.8%     -   11s
     0     0 5003.21119    0 1436 12408.0000 5003.21119  59.7%     -   12s
     0     0 5003.74381    0 1485 12408.0000 5003.74381  59.7%     -   13s
     0     0 5004.41303    0 1485 12408.0000 5004.41303  59.7%     -   13s
     0     0 5004.49290    0 1538 12408.0000 5004.49290  59.7%     -   13s
     0     0 5004.50157    0 1538 12408.0000 5004.50157  59.7%     -   13s
     0     0 5029.77124    0 1440 12408.0000 5029.77124  59.5%     -   14s
H    0     0                    12404.000000 5029.77279  59.5%     -   14s
H    0     0                    12380.000000 5029.77279  59.4%     -   14s
H    0     0                    12376.000000 5029.77279  59.4%     -   14s
H    0     0                    12359.000000 5029.77279  59.3%     -   14s
     0     0 5032.75164    0 1570 12359.0000 5032.75164  59.3%     -   15s
     0     0 5033.20298    0 1580 12359.0000 5033.20298  59.3%     -   15s
     0     0 5033.29450    0 1602 12359.0000 5033.29450  59.3%     -   15s
     0     0 5033.33453    0 1652 12359.0000 5033.33453  59.3%     -   15s
     0     0 5033.33602    0 1653 12359.0000 5033.33602  59.3%     -   15s
     0     0 5084.01197    0 1630 12359.0000 5084.01197  58.9%     -   16s
H    0     0                    12204.000000 5084.02718  58.3%     -   16s
H    0     0                    11964.000000 5084.02718  57.5%     -   16s
H    0     0                    11931.000000 5084.02718  57.4%     -   16s
H    0     0                    11628.000000 5084.02718  56.3%     -   16s
H    0     0                    11627.000000 5084.02718  56.3%     -   16s
H    0     0                    11621.000000 5084.02718  56.3%     -   16s
     0     0 5085.53786    0 1612 11621.0000 5085.53786  56.2%     -   17s
     0     0 5085.69685    0 1640 11621.0000 5085.69685  56.2%     -   17s
     0     0 5089.80243    0 1653 11621.0000 5089.80243  56.2%     -   17s
     0     0 5089.81809    0 1699 11621.0000 5089.81809  56.2%     -   17s
     0     0 5136.68031    0 1454 11621.0000 5136.68031  55.8%     -   18s
H    0     0                    11382.000000 5136.87388  54.9%     -   18s
H    0     0                    11379.000000 5136.87388  54.9%     -   18s
H    0     0                    11340.000000 5136.87388  54.7%     -   18s
H    0     0                    11339.000000 5136.87388  54.7%     -   18s
H    0     0                    11325.000000 5136.87388  54.6%     -   18s
H    0     0                    11315.000000 5136.87388  54.6%     -   18s
H    0     0                    11313.000000 5136.87388  54.6%     -   18s
H    0     0                    11311.000000 5136.87388  54.6%     -   18s
     0     0 5141.22804    0 1514 11311.0000 5141.22804  54.5%     -   19s
     0     0 5141.31198    0 1519 11311.0000 5141.31198  54.5%     -   19s
     0     0 5141.39401    0 1507 11311.0000 5141.39401  54.5%     -   19s
     0     0 5141.40433    0 1514 11311.0000 5141.40433  54.5%     -   19s
     0     0 5163.96297    0 1524 11311.0000 5163.96297  54.3%     -   20s
H    0     0                    11268.000000 5163.96683  54.2%     -   20s
H    0     0                    11177.000000 5163.96683  53.8%     -   20s
H    0     0                    11173.000000 5163.96683  53.8%     -   20s
     0     0 5165.61862    0 1548 11173.0000 5165.61862  53.8%     -   20s
     0     0 5165.76582    0 1593 11173.0000 5165.76582  53.8%     -   21s
     0     0 5165.80416    0 1618 11173.0000 5165.80416  53.8%     -   21s
     0     0 5196.34630    0 1626 11173.0000 5196.34630  53.5%     -   22s
H    0     0                    11143.000000 5196.35131  53.4%     -   22s
H    0     0                    11140.000000 5196.35131  53.4%     -   22s
H    0     0                    11128.000000 5196.35131  53.3%     -   22s
H    0     0                    11124.000000 5196.35131  53.3%     -   22s
H    0     0                    11118.000000 5196.35131  53.3%     -   22s
H    0     0                    10967.000000 5196.35131  52.6%     -   22s
     0     0 5197.01679    0 1593 10967.0000 5197.01679  52.6%     -   22s
     0     0 5197.09795    0 1652 10967.0000 5197.09795  52.6%     -   22s
     0     0 5197.11674    0 1615 10967.0000 5197.11674  52.6%     -   22s
     0     0 5226.31675    0 1455 10967.0000 5226.31675  52.3%     -   23s
H    0     0                    10964.000000 5226.31689  52.3%     -   24s
H    0     0                    10549.000000 5226.31689  50.5%     -   24s
H    0     0                    10524.000000 5226.31689  50.3%     -   24s
H    0     0                    10485.000000 5226.31689  50.2%     -   24s
H    0     0                    10439.000000 5226.31689  49.9%     -   24s
H    0     0                    10437.000000 5226.31689  49.9%     -   24s
H    0     0                    10340.000000 5226.31689  49.5%     -   24s
H    0     0                    10319.000000 5226.31689  49.4%     -   24s
H    0     0                    10158.000000 5226.31689  48.5%     -   24s
H    0     0                    10150.000000 5226.31689  48.5%     -   24s
H    0     0                    10013.000000 5226.31689  47.8%     -   24s
H    0     0                    10010.000000 5226.31689  47.8%     -   24s
H    0     0                    10005.000000 5226.31689  47.8%     -   24s
H    0     0                    9992.0000000 5226.31689  47.7%     -   24s
H    0     0                    9991.0000000 5226.31689  47.7%     -   24s
H    0     0                    9990.0000000 5226.31689  47.7%     -   24s
H    0     0                    9985.0000000 5226.31689  47.7%     -   24s
H    0     0                    9898.0000000 5226.31689  47.2%     -   24s
H    0     0                    9894.0000000 5226.31689  47.2%     -   24s
H    0     0                    9799.0000000 5226.31689  46.7%     -   24s
H    0     0                    9797.0000000 5226.31689  46.7%     -   25s
H    0     0                    9790.0000000 5226.31689  46.6%     -   25s
H    0     0                    9757.0000000 5226.31689  46.4%     -   25s
H    0     0                    9716.0000000 5226.31689  46.2%     -   25s
H    0     0                    9712.0000000 5226.31689  46.2%     -   25s
H    0     0                    9700.0000000 5226.31689  46.1%     -   25s
H    0     0                    9692.0000000 5226.31689  46.1%     -   25s
H    0     0                    9684.0000000 5226.31689  46.0%     -   25s
     0     0 5226.91440    0 1527 9684.00000 5226.91440  46.0%     -   25s
     0     0 5230.89442    0 1554 9684.00000 5230.89442  46.0%     -   25s
     0     0 5230.92326    0 1564 9684.00000 5230.92326  46.0%     -   25s
     0     0 5265.82225    0 1637 9684.00000 5265.82225  45.6%     -   26s
H    0     0                    9524.0000000 5265.82283  44.7%     -   26s
     0     0 5266.66120    0 1586 9524.00000 5266.66120  44.7%     -   26s
     0     0 5266.85482    0 1718 9524.00000 5266.85482  44.7%     -   27s
     0     0 5266.86698    0 1701 9524.00000 5266.86698  44.7%     -   27s
     0     0          -    0      9524.00000 5266.86698  44.7%     -   27s

Cutting planes:
  Gomory: 8
  Lift-and-project: 1
  Cover: 590
  Implied bound: 13
  Clique: 107
  MIR: 125
  StrongCG: 22
  GUB cover: 4
  Zero half: 37
  RLT: 460
  Relax-and-lift: 14
  BQP: 11

Explored 1 nodes (71133 simplex iterations) in 27.46 seconds (65.63 work units)
Thread count was 12 (of 12 available processors)

Solution count 10: 9524 9684 9692 ... 9799

Solve interrupted
Best objective 9.524000000000e+03, best bound 5.267000000000e+03, gap 44.6976%

Gurobi 12.0.0 (mac64[arm]) logging started Fri Sep 12 13:54:44 2025

Set parameter LogFile to value "gurobi_output_cah_sim.txt"
Gurobi Optimizer version 12.0.0 build v12.0.0rc1 (mac64[arm] - Darwin 24.6.0 24G90)

CPU model: Apple M4 Pro
Thread count: 12 physical cores, 12 logical processors, using up to 12 threads

Non-default parameters:
WorkLimit  100000

Optimize a model with 90600 rows, 727750 columns and 4778850 nonzeros
Model fingerprint: 0x23e6bf09
Model has 625000 simple general constraints
  625000 INDICATOR
Variable types: 0 continuous, 727750 integer (727500 binary)
Coefficient statistics:
  Matrix range     [1e+00, 8e+02]
  Objective range  [1e+00, 1e+02]
  Bounds range     [1e+00, 1e+00]
  RHS range        [1e+00, 2e+03]
  GenCon rhs range [3e+01, 5e+02]
  GenCon coe range [1e+00, 1e+00]
Presolve added 499300 rows and 0 columns
Presolve removed 0 rows and 133800 columns
Presolve time: 0.76s
Presolved: 589900 rows, 593950 columns, 1012650 nonzeros
Variable types: 0 continuous, 593950 integer (66100 binary)
Performing another presolve...
Presolve removed 534150 rows and 533920 columns
Presolve time: 0.03s
Performing another presolve...
Presolve removed 31780 rows and 29550 columns
Presolve time: 0.26s
Deterministic concurrent LP optimizer: primal and dual simplex
Showing primal log only...

Concurrent spin time: 0.11s

Solved with dual simplex

Root relaxation: objective 4.907028e+03, 19264 iterations, 1.43 seconds (3.13 work units)

    Nodes    |    Current Node    |     Objective Bounds      |     Work
 Expl Unexpl |  Obj  Depth IntInf | Incumbent    BestBd   Gap | It/Node Time

     0     0 4907.02836    0  928          - 4907.02836      -     -    3s
H    0     0                    19669.000000 4907.68388  75.0%     -    4s
     0     0 4939.38511    0 1215 19669.0000 4939.38511  74.9%     -    5s
H    0     0                    19109.000000 4939.80415  74.1%     -    5s
H    0     0                    19038.000000 4939.80415  74.1%     -    5s
H    0     0                    18416.000000 4939.80415  73.2%     -    5s
H    0     0                    18258.000000 4939.80415  72.9%     -    5s
H    0     0                    15293.000000 4939.80415  67.7%     -    5s
H    0     0                    14872.000000 4939.80415  66.8%     -    5s
H    0     0                    14818.000000 4939.80415  66.7%     -    5s
H    0     0                    14757.000000 4939.80415  66.5%     -    5s
H    0     0                    14755.000000 4939.80415  66.5%     -    5s
H    0     0                    14749.000000 4939.80415  66.5%     -    5s
H    0     0                    14716.000000 4939.80415  66.4%     -    5s
H    0     0                    14633.000000 4939.80415  66.2%     -    5s
H    0     0                    14562.000000 4939.80415  66.1%     -    5s
     0     0 4942.78990    0 1300 14562.0000 4942.78990  66.1%     -    5s
     0     0 4943.27091    0 1276 14562.0000 4943.27091  66.1%     -    5s
     0     0 4943.27106    0 1290 14562.0000 4943.27106  66.1%     -    5s
     0     0 4955.96699    0 1381 14562.0000 4955.96699  66.0%     -    7s
H    0     0                    14482.000000 4955.97574  65.8%     -    7s
H    0     0                    14438.000000 4955.97574  65.7%     -    7s
H    0     0                    14293.000000 4955.97574  65.3%     -    7s
H    0     0                    14122.000000 4955.97574  64.9%     -    7s
H    0     0                    13980.000000 4955.97574  64.5%     -    7s
H    0     0                    13870.000000 4955.97574  64.3%     -    7s
H    0     0                    13867.000000 4955.97574  64.3%     -    7s
H    0     0                    13732.000000 4955.97574  63.9%     -    7s
H    0     0                    13683.000000 4955.97574  63.8%     -    8s
H    0     0                    13672.000000 4955.97574  63.8%     -    8s
H    0     0                    13669.000000 4955.97574  63.7%     -    8s
H    0     0                    13628.000000 4955.97574  63.6%     -    8s
H    0     0                    13624.000000 4955.97574  63.6%     -    8s
H    0     0                    13546.000000 4955.97574  63.4%     -    8s
H    0     0                    13542.000000 4955.97574  63.4%     -    8s
H    0     0                    13503.000000 4955.97574  63.3%     -    8s
H    0     0                    13498.000000 4955.97574  63.3%     -    8s
H    0     0                    13426.000000 4955.97574  63.1%     -    8s
H    0     0                    13353.000000 4955.97574  62.9%     -    8s
H    0     0                    13211.000000 4955.97574  62.5%     -    8s
H    0     0                    13063.000000 4955.97574  62.1%     -    8s
H    0     0                    13031.000000 4955.97574  62.0%     -    8s
H    0     0                    13003.000000 4955.97574  61.9%     -    8s
H    0     0                    12972.000000 4955.97574  61.8%     -    8s
H    0     0                    12886.000000 4955.97574  61.5%     -    8s
H    0     0                    12864.000000 4955.97574  61.5%     -    8s
H    0     0                    12841.000000 4955.97574  61.4%     -    8s
H    0     0                    12744.000000 4955.97574  61.1%     -    8s
     0     0 4957.67837    0 1402 12744.0000 4957.67837  61.1%     -    8s
     0     0 4957.72711    0 1395 12744.0000 4957.72711  61.1%     -    8s
     0     0 4957.73401    0 1408 12744.0000 4957.73401  61.1%     -    8s
     0     0 4982.68234    0 1436 12744.0000 4982.68234  60.9%     -   10s
H    0     0                    12432.000000 4982.68234  59.9%     -   10s
H    0     0                    12426.000000 4982.68234  59.9%     -   10s
H    0     0                    12408.000000 4982.68234  59.8%     -   10s
     0     0 4984.69356    0 1476 12408.0000 4984.69356  59.8%     -   11s
     0     0 4984.77230    0 1485 12408.0000 4984.77230  59.8%     -   11s
     0     0 4984.80379    0 1497 12408.0000 4984.80379  59.8%     -   11s
     0     0 4984.80379    0 1497 12408.0000 4984.80379  59.8%     -   11s
     0     0 5003.21119    0 1436 12408.0000 5003.21119  59.7%     -   12s
     0     0 5003.74381    0 1485 12408.0000 5003.74381  59.7%     -   13s
     0     0 5004.41303    0 1485 12408.0000 5004.41303  59.7%     -   13s
     0     0 5004.49290    0 1538 12408.0000 5004.49290  59.7%     -   13s
     0     0 5004.50157    0 1538 12408.0000 5004.50157  59.7%     -   13s
     0     0 5029.77124    0 1440 12408.0000 5029.77124  59.5%     -   14s
H    0     0                    12404.000000 5029.77279  59.5%     -   14s
H    0     0                    12380.000000 5029.77279  59.4%     -   14s
H    0     0                    12376.000000 5029.77279  59.4%     -   14s
H    0     0                    12359.000000 5029.77279  59.3%     -   14s
     0     0 5032.75164    0 1570 12359.0000 5032.75164  59.3%     -   15s
     0     0 5033.20298    0 1580 12359.0000 5033.20298  59.3%     -   15s
     0     0 5033.29450    0 1602 12359.0000 5033.29450  59.3%     -   15s
     0     0 5033.33453    0 1652 12359.0000 5033.33453  59.3%     -   15s
     0     0 5033.33602    0 1653 12359.0000 5033.33602  59.3%     -   15s
     0     0 5084.01197    0 1630 12359.0000 5084.01197  58.9%     -   16s
H    0     0                    12204.000000 5084.02718  58.3%     -   16s
H    0     0                    11964.000000 5084.02718  57.5%     -   16s
H    0     0                    11931.000000 5084.02718  57.4%     -   16s
H    0     0                    11628.000000 5084.02718  56.3%     -   16s
H    0     0                    11627.000000 5084.02718  56.3%     -   16s
H    0     0                    11621.000000 5084.02718  56.3%     -   16s
     0     0 5085.53786    0 1612 11621.0000 5085.53786  56.2%     -   17s
     0     0 5085.69685    0 1640 11621.0000 5085.69685  56.2%     -   17s
     0     0 5089.80243    0 1653 11621.0000 5089.80243  56.2%     -   17s
     0     0 5089.81809    0 1699 11621.0000 5089.81809  56.2%     -   17s
     0     0 5136.68031    0 1454 11621.0000 5136.68031  55.8%     -   18s
H    0     0                    11382.000000 5136.87388  54.9%     -   18s
H    0     0                    11379.000000 5136.87388  54.9%     -   18s
H    0     0                    11340.000000 5136.87388  54.7%     -   18s
H    0     0                    11339.000000 5136.87388  54.7%     -   18s
H    0     0                    11325.000000 5136.87388  54.6%     -   18s
H    0     0                    11315.000000 5136.87388  54.6%     -   18s
H    0     0                    11313.000000 5136.87388  54.6%     -   18s
H    0     0                    11311.000000 5136.87388  54.6%     -   18s
     0     0 5141.22804    0 1514 11311.0000 5141.22804  54.5%     -   19s
     0     0 5141.31198    0 1519 11311.0000 5141.31198  54.5%     -   19s
     0     0 5141.39401    0 1507 11311.0000 5141.39401  54.5%     -   19s
     0     0 5141.40433    0 1514 11311.0000 5141.40433  54.5%     -   19s
     0     0 5163.96297    0 1524 11311.0000 5163.96297  54.3%     -   20s
H    0     0                    11268.000000 5163.96683  54.2%     -   20s
H    0     0                    11177.000000 5163.96683  53.8%     -   20s
H    0     0                    11173.000000 5163.96683  53.8%     -   20s
     0     0 5165.61862    0 1548 11173.0000 5165.61862  53.8%     -   20s
     0     0 5165.76582    0 1593 11173.0000 5165.76582  53.8%     -   21s
     0     0 5165.80416    0 1618 11173.0000 5165.80416  53.8%     -   21s
     0     0 5196.34630    0 1626 11173.0000 5196.34630  53.5%     -   22s
H    0     0                    11143.000000 5196.35131  53.4%     -   22s
H    0     0                    11140.000000 5196.35131  53.4%     -   22s
H    0     0                    11128.000000 5196.35131  53.3%     -   22s
H    0     0                    11124.000000 5196.35131  53.3%     -   22s
H    0     0                    11118.000000 5196.35131  53.3%     -   22s
H    0     0                    10967.000000 5196.35131  52.6%     -   22s
     0     0 5197.01679    0 1593 10967.0000 5197.01679  52.6%     -   22s
     0     0 5197.09795    0 1652 10967.0000 5197.09795  52.6%     -   22s
     0     0 5197.11674    0 1615 10967.0000 5197.11674  52.6%     -   22s
     0     0 5226.31675    0 1455 10967.0000 5226.31675  52.3%     -   23s
H    0     0                    10964.000000 5226.31689  52.3%     -   24s
H    0     0                    10549.000000 5226.31689  50.5%     -   24s
H    0     0                    10524.000000 5226.31689  50.3%     -   24s
H    0     0                    10485.000000 5226.31689  50.2%     -   24s
H    0     0                    10439.000000 5226.31689  49.9%     -   24s
H    0     0                    10437.000000 5226.31689  49.9%     -   24s
H    0     0                    10340.000000 5226.31689  49.5%     -   24s
H    0     0                    10319.000000 5226.31689  49.4%     -   24s
H    0     0                    10158.000000 5226.31689  48.5%     -   24s
H    0     0                    10150.000000 5226.31689  48.5%     -   24s
H    0     0                    10013.000000 5226.31689  47.8%     -   24s
H    0     0                    10010.000000 5226.31689  47.8%     -   24s
H    0     0                    10005.000000 5226.31689  47.8%     -   24s
H    0     0                    9992.0000000 5226.31689  47.7%     -   24s
H    0     0                    9991.0000000 5226.31689  47.7%     -   24s
H    0     0                    9990.0000000 5226.31689  47.7%     -   24s

Cutting planes:
  Gomory: 8
  Lift-and-project: 1
  Cover: 436
  Implied bound: 2
  Clique: 100
  MIR: 47
  StrongCG: 9
  GUB cover: 4
  Zero half: 23
  RLT: 409
  Relax-and-lift: 5
  BQP: 7

Explored 1 nodes (65806 simplex iterations) in 24.82 seconds (58.95 work units)
Thread count was 12 (of 12 available processors)

Solution count 10: 9990 9991 9992 ... 10340

Solve interrupted
Best objective 9.990000000000e+03, best bound 5.227000000000e+03, gap 47.6777%

Gurobi 12.0.0 (mac64[arm]) logging started Fri Sep 12 14:56:20 2025

Set parameter LogFile to value "gurobi_output_cah_sim.txt"
Gurobi Optimizer version 12.0.0 build v12.0.0rc1 (mac64[arm] - Darwin 24.6.0 24G90)

CPU model: Apple M4 Pro
Thread count: 12 physical cores, 12 logical processors, using up to 12 threads

Non-default parameters:
WorkLimit  100000

Optimize a model with 90600 rows, 727750 columns and 4778850 nonzeros
Model fingerprint: 0x23e6bf09
Model has 625000 simple general constraints
  625000 INDICATOR
Variable types: 0 continuous, 727750 integer (727500 binary)
Coefficient statistics:
  Matrix range     [1e+00, 8e+02]
  Objective range  [1e+00, 1e+02]
  Bounds range     [1e+00, 1e+00]
  RHS range        [1e+00, 2e+03]
  GenCon rhs range [3e+01, 5e+02]
  GenCon coe range [1e+00, 1e+00]
Presolve added 499300 rows and 0 columns
Presolve removed 0 rows and 133800 columns
Presolve time: 0.74s
Presolved: 589900 rows, 593950 columns, 1012650 nonzeros
Variable types: 0 continuous, 593950 integer (66100 binary)
Performing another presolve...
Presolve removed 534150 rows and 533920 columns
Presolve time: 0.04s
Performing another presolve...
Presolve removed 31780 rows and 29550 columns
Presolve time: 0.27s
Deterministic concurrent LP optimizer: primal and dual simplex
Showing primal log only...

Concurrent spin time: 0.12s

Solved with dual simplex

Root relaxation: objective 4.907028e+03, 19264 iterations, 1.42 seconds (3.13 work units)

    Nodes    |    Current Node    |     Objective Bounds      |     Work
 Expl Unexpl |  Obj  Depth IntInf | Incumbent    BestBd   Gap | It/Node Time

     0     0 4907.02836    0  928          - 4907.02836      -     -    3s
H    0     0                    19669.000000 4907.68388  75.0%     -    4s
     0     0 4939.38511    0 1215 19669.0000 4939.38511  74.9%     -    5s
H    0     0                    19109.000000 4939.80415  74.1%     -    5s
H    0     0                    19038.000000 4939.80415  74.1%     -    5s
H    0     0                    18416.000000 4939.80415  73.2%     -    5s
H    0     0                    18258.000000 4939.80415  72.9%     -    5s
H    0     0                    15293.000000 4939.80415  67.7%     -    5s
H    0     0                    14872.000000 4939.80415  66.8%     -    5s
H    0     0                    14818.000000 4939.80415  66.7%     -    5s
H    0     0                    14757.000000 4939.80415  66.5%     -    5s
H    0     0                    14755.000000 4939.80415  66.5%     -    5s
H    0     0                    14749.000000 4939.80415  66.5%     -    5s
H    0     0                    14716.000000 4939.80415  66.4%     -    5s
H    0     0                    14633.000000 4939.80415  66.2%     -    5s
H    0     0                    14562.000000 4939.80415  66.1%     -    5s
     0     0 4942.78990    0 1300 14562.0000 4942.78990  66.1%     -    5s
     0     0 4943.27091    0 1276 14562.0000 4943.27091  66.1%     -    5s
     0     0 4943.27106    0 1290 14562.0000 4943.27106  66.1%     -    5s
     0     0 4955.96699    0 1381 14562.0000 4955.96699  66.0%     -    7s
H    0     0                    14482.000000 4955.97574  65.8%     -    7s

Cutting planes:
  Gomory: 15
  Lift-and-project: 1
  Cover: 102
  Clique: 45
  MIR: 28
  StrongCG: 3
  GUB cover: 3
  Zero half: 14
  RLT: 127
  Relax-and-lift: 2
  BQP: 3

Explored 1 nodes (28833 simplex iterations) in 7.83 seconds (17.41 work units)
Thread count was 12 (of 12 available processors)

Solution count 10: 14482 14562 14633 ... 15293

Solve interrupted
Best objective 1.448200000000e+04, best bound 4.956000000000e+03, gap 65.7782%
